&CONTROL
     calculation   = 'scf',
     restart_mode  = 'from_scratch',
     prefix        = 'GeTe-mono',
     pseudo_dir    = '../../../pseudo/',
     outdir        = './work/',
/

&SYSTEM                     
     ibrav         = 0,                   
     nat           = 4,                     
     ntyp          = 2,
     nbnd          = 60,
     ecutwfc       = 50.0,
     ecutrho       = 600.0,
/

&ELECTRONS
     mixing_beta   = 0.7,
     conv_thr      = 1d-9,
/

ATOMIC_SPECIES
 Ge  72.63 Ge_ONCV_PBE-1.2.upf
 Te 127.60 Te_ONCV_PBE-1.2.upf

CELL_PARAMETERS (angstrom)
   4.237591251   0.000000000   0.000000000
   0.000000000   4.382474597   0.000000000
   0.000000000   0.000000000  20.000000000

ATOMIC_POSITIONS (angstrom)
Ge            0.0000000000        2.0564275070        7.0405404769
Ge            2.1187956257        4.2475751888        4.6354180492
Te            2.1187956257        0.1349384885        7.3627445862
Te            0.0000000000        2.3260080091        4.3132968878

K_POINTS automatic
36 36 1 1 1 1 
