&BANDS
 outdir   = './work/',
 prefix   = 'GeTe-mono',
 filband  = 'GeTe-mono.bands',
/
