&BANDS
 outdir   = './work/',
 prefix   = 'GeTe-r',
 filband  = 'GeTe-r.bands',
/
