&DOS
 outdir   = './work/',
 prefix   = 'GeTe-r',
 fildos   = 'GeTe-r.dos',
 emin     = -5.00
 emax     = 25.00
/
