&INPUTPP
     calculation   = 'jdos',
     prefix        = 'GeTe-c',
     outdir        = './work/',
/

&ENERGY_GRID
     smeartype     = 'lorentz'
     intersmear    = 0.10
     intrasmear    = 0.00
     wmin          = 0.00
     wmax          = 10.0
     nw            = 1000
/
