&BANDS
 outdir   = './work/',
 prefix   = 'GeTe-c',
 filband  = 'GeTe-c.bands',
/
