&DOS
 outdir   = './work/',
 prefix   = 'GeTe-c',
 fildos   = 'GeTe-c.dos',
 emin     = -5.00
 emax     = 25.00
/
