&CONTROL
     calculation   = 'nscf',
     restart_mode  = 'from_scratch',
     prefix        = 'GeTe-c',
     pseudo_dir    = '../../../pseudo/',
     outdir        = './work/',
     verbosity     = 'high'
/

&SYSTEM                     
     ibrav         = 0,                   
     nat           = 2,                     
     ntyp          = 2,
     nbnd          = 30,
     ecutwfc       = 50.0,
     ecutrho       = 600.0,
     occupations   = 'tetrahedra'
/

&ELECTRONS
     mixing_beta   = 0.7,
     conv_thr      = 1d-9,
/

ATOMIC_SPECIES
 Ge  72.63 Ge_ONCV_PBE-1.2.upf
 Te 127.60 Te_ONCV_PBE-1.2.upf

CELL_PARAMETERS (angstrom)
   4.248704910   0.000000000   0.000000000
   2.124352455   3.679486385   0.000000000
   2.124352455   1.226495462   3.469053033

ATOMIC_POSITIONS (crystal)
Ge            0.0000000000        0.0000000000        0.0000000000
Te            0.5000000000        0.5000000000        0.5000000000

K_POINTS automatic
36 36 36 1 1 1
